PARAMETER_FILE = even/even_uncomplete_graph_new/nei/par/random96.par
PROBLEM_FILE = even/even_uncomplete_graph_new/nei/mat/random96.tsp
Successes/Runs = 0/10
Cost.min = 760, Cost.avg = 760.00, Cost.max = 760
Gap.min = 0.0000%, Gap.avg = 0.0000%, Gap.max = 0.0000%
Trials.min = 1000, Trials.avg = 1000.0, Trials.max = 1000
Time.min = 0.31 sec., Time.avg = 0.39 sec., Time.max = 0.49 sec.
Time.total = 3.98 sec.
